
  32    4
  10   10   10   10

   0   0   0   0   0  13 2 3 6 7 8 9 13 14 15 16 29 30 31 
   7   0   1   1   1   6 24 22 21 18 12 4 
   1   1   3   0   5   7 28 27 24 22 19 18 17 
   8   3   5   4   0   2 23 5 
   6   4   2   0   4   2 20 10 
   1   0   4   4   2   3 26 23 21 
   2   4   3   0   6   2 20 17 
   9   8   3   0   2   2 25 19 
   9   1   6   3   0   2 18 17 
  10   3   0   7   2   1 11 
   9   3   0   3   6   1 17 
   5   5   3   0   4   1 19 
   2   0   2   4   5   1 22 
   3   3   4   6   0   1 21 
   2   2   4   5   0   1 18 
   5   4   4   0   3   1 17 
   2   0   5   2   4   1 32
   5   4   4   7   0   1 32
   1   5   4   0   3   1 32
   3   3   0   6   5   1 32
   4   5   0   3   3   1 32
   8   7   0   3   9   1 32
   9   4   6   4   0   1 32
   6   0   4   3   2   1 32
   5   0   8   5   5   1 32
   8   2   0   4   4   1 32
   4   6   5   2   0   1 32
   2   0   5   4   2   1 32
  10   0   3   5   5   1 32
   8   7   0   4   5   1 32
   2   4   0   3   5   1 32
   0   0   0   0   0   0 
